119
100
23
19
2
13
12
4
1
20
16
5
25
25
18
13
15
2
17
16
7
10
4
7
15
11
7
23
1
16
14
1
9
24
6
4
15
14
23
16
11
15
11
15
11
6
9
12
7
23
1
9
25
17
25
14
9
4
6
13
22
6
8
19
11
11
10
8
15
11
19
9
11
11
14
10
16
11
13
7
12
13
25
23
9
22
11
4
25
5
22
15
12
22
10
20
24
14
3
1
7
10
19
6
22
8
12
8
13
16
5
16
4
19
2
22
3
6
20
8
24
